Li2 Zn3 Co3 Cu16 Ni2 Ru3 Pt5 C1 O3
1.0
  10.8410190582907013    0.0000000000000000   -2.6293333333333306
   5.7393630308597814    9.5656050514329731   -0.0000000000000018
   0.0000000000000000    0.0000000000000000   23.6640000000000015
Zn Co Cu Ni Ru Pt O C Li
3 3 16 2 3 5 3 1 2
direct
   0.9500000000000001    0.8999999999999999    0.0500000000000000 Zn
   0.1000000000000001    0.7000000000000000    0.1500000000000000 Zn
   0.2000000000000001    0.1500000000000000    0.0500000000000000 Zn
   0.2000000000000001    0.6500000000000000    0.0499999999999999 Co
   0.8500000000000002    0.4500000000000001    0.1499999999999999 Co
   0.7000000000000001    0.4000000000000000    0.0499999999999999 Co
   0.6000000000000001    0.7000000000000001    0.1500000000000000 Cu
   0.8500000000000002    0.2000000000000000    0.1500000000000000 Cu
   0.9500000000000000    0.6500000000000000    0.0499999999999999 Cu
   0.7000000000000000    0.1500000000000000    0.0500000000000000 Cu
   0.8500000000000001    0.7000000000000000    0.1500000000000000 Cu
   0.4500000000000000    0.6500000000000000    0.0499999999999999 Cu
   0.4500000000000000    0.1500000000000000    0.0500000000000000 Cu
   0.3500000000000003    0.2000000000000001    0.1500000000000000 Cu
   0.7000000000000001    0.8999999999999999    0.0500000000000000 Cu
   0.6000000000000001    0.9500000000000000    0.1500000000000000 Cu
   0.4500000000000002    0.8999999999999999    0.0500000000000000 Cu
   0.6000000000000000    0.4500000000000001    0.1499999999999999 Cu
   0.9500000000000002    0.4000000000000000    0.0500000000000000 Cu
   0.2000000000000000    0.8999999999999999    0.0500000000000000 Cu
   0.9500000000000000    0.1500000000000000    0.0500000000000000 Cu
   0.6000000000000001    0.2000000000000000    0.1499999999999999 Cu
   0.2000000000000000    0.4000000000000000    0.0499999999999999 Ni
   0.1000000000000001    0.4500000000000001    0.1500000000000000 Ni
   0.3500000000000000    0.7000000000000001    0.1500000000000000 Ru
   0.3500000000000002    0.9500000000000000    0.1500000000000000 Ru
   0.3500000000000002    0.4500000000000001    0.1499999999999999 Ru
   0.8500000000000003    0.9500000000000000    0.1500000000000000 Pt
   0.1000000000000002    0.9500000000000000    0.1500000000000000 Pt
   0.7000000000000002    0.6500000000000001    0.0499999999999999 Pt
   0.4500000000000002    0.4000000000000000    0.0500000000000000 Pt
   0.1000000000000000    0.2000000000000001    0.1499999999999999 Pt
   0.8232743916146483    0.6495743582986779    0.2597902388164857 O
   1.0300390185608796    0.6491396111333766    0.2597902388164856 O
   0.8239993664379618    0.8558101326192156    0.2597902388164857 O
   0.8925147633643646    0.7180263345876619    0.2597902388164857 C
   0.9440269526582733    0.4337430929725622    0.2597902388164857 Li
   1.1681287787569632    0.4197897791909879    0.2597902388164856 Li
