Zn10 Co10 Cu50 Ni5 Ru10 Pt23
1.0
  16.0206037339421137    0.0000000000000000    4.8303937727684287
   8.7385111276047898   14.2699289161763971    0.0000000000000010
   0.0000000000000000    0.0000000000000000   28.9823626366105636
Zn Co Cu Ni Ru Pt
10 10 50 5 10 23
direct
   0.9166666666666667    0.0416683333333334    0.5000016666666667 Zn
   0.4166683333333333    0.7916641666666668    0.4166658333333334 Zn
   0.0833366666666667    0.7916633333333336    0.4166666666666667 Zn
   0.0833366666666668    0.9583333333333334    0.4166666666666666 Zn
   0.9166683333333332    0.6249975000000002    0.5833325000000000 Zn
   0.4166666666666666    0.5416666666666666    0.5000000000000000 Zn
   0.5833333333333333    0.2916666666666667    0.4166666666666666 Zn
   0.0833350000000001    0.2916658333333333    0.4166675000000000 Zn
   0.4166649999999998    0.3749991666666667    0.5000008333333333 Zn
   0.9166666666666667    0.6250000000000000    0.4166666666666666 Zn
   0.9166666666666665    0.7916666666666665    0.5833333333333334 Co
   0.2499983333333334    0.1250025000000001    0.4166675000000000 Co
   0.5833349999999999    0.4583341666666668    0.4166658333333333 Co
   0.5833316666666668    0.8750008333333333    0.4999991666666667 Co
   0.2500016666666667    0.7083308333333336    0.4999991666666667 Co
   0.0833350000000001    0.4583325000000001    0.4166675000000000 Co
   0.4166666666666667    0.8750000000000000    0.5000000000000000 Co
   0.9166666666666666    0.7916633333333336    0.4166666666666667 Co
   0.4166666666666667    0.6249983333333335    0.5833316666666667 Co
   0.7500000000000000    0.8750000000000000    0.5000000000000000 Co
   0.9166666666666667    0.9583333333333334    0.4166666666666666 Cu
   0.2500000000000001    0.2083333333333334    0.4999999999999999 Cu
   0.5833333333333335    0.9583333333333334    0.4166666666666666 Cu
   0.5833300000000000    0.0416699999999999    0.5000000000000000 Cu
   0.4166649999999998    0.0416691666666667    0.5000008333333333 Cu
   0.2499999999999999    0.3750000000000001    0.5000000000000000 Cu
   0.2500000000000001    0.2916666666666667    0.4166666666666666 Cu
   0.4166666666666667    0.9583333333333334    0.4166666666666666 Cu
   0.0833333333333333    0.3750000000000001    0.5000000000000000 Cu
   0.4166650000000000    0.2916675000000000    0.5833325000000000 Cu
   0.2499999999999999    0.2916666666666667    0.5833333333333333 Cu
   0.4166650000000002    0.1250008333333334    0.5833324999999999 Cu
   0.9166683333333334    0.5416658333333333    0.5000008333333333 Cu
   0.2499983333333334    0.0416691666666668    0.5000008333333332 Cu
   0.4166699999999998    0.7083316666666668    0.4999983333333335 Cu
   0.5833333333333333    0.7083316666666668    0.4999983333333334 Cu
   0.7500000000000002    0.2916683333333333    0.4166650000000000 Cu
   0.7499983333333333    0.4583341666666667    0.4166658333333333 Cu
   0.2499999999999999    0.1250000000000000    0.5833333333333333 Cu
   0.4166666666666668    0.7916683333333333    0.5833316666666667 Cu
   0.2500033333333332    0.7916650000000002    0.4166650000000001 Cu
   0.2500016666666667    0.8750008333333333    0.4999991666666667 Cu
   0.0833333333333333    0.0416700000000000    0.5000000000000000 Cu
   0.7499983333333332    0.6250008333333332    0.4166658333333334 Cu
   0.2500000000000001    0.9583333333333334    0.4166666666666666 Cu
   0.5833366666666666    0.6249983333333335    0.5833316666666667 Cu
   0.7500000000000000    0.5416666666666666    0.5000000000000000 Cu
   0.9166700000000000    0.2083333333333333    0.5000000000000000 Cu
   0.7500016666666667    0.3750008333333334    0.4999991666666667 Cu
   0.9166683333333334    0.3749991666666667    0.5000008333333333 Cu
   0.9166666666666667    0.2916666666666667    0.4166666666666666 Cu
   0.9166666666666666    0.1250033333333333    0.4166666666666667 Cu
   0.0833316666666666    0.7916658333333333    0.5833341666666667 Cu
   0.7499966666666668    0.1250033333333333    0.4166666666666667 Cu
   0.2500000000000000    0.7916666666666667    0.5833333333333333 Cu
   0.0833333333333333    0.7083300000000002    0.5000000000000000 Cu
   0.2500000000000001    0.6250000000000000    0.4166666666666666 Cu
   0.4166666666666667    0.4583333333333335    0.4166666666666666 Cu
   0.2499999999999999    0.6249966666666669    0.5833333333333335 Cu
   0.4166633333333333    0.4583333333333333    0.5833333333333334 Cu
   0.7500000000000000    0.9583350000000000    0.5833349999999999 Cu
   0.9166666666666667    0.1250000000000000    0.5833333333333333 Cu
   0.0833316666666667    0.9583358333333334    0.5833341666666666 Cu
   0.0833333333333334    0.8750000000000000    0.4999999999999999 Cu
   0.5833316666666667    0.9583358333333334    0.5833341666666666 Cu
   0.9166666666666667    0.4583333333333334    0.4166666666666666 Cu
   0.5833316666666667    0.2916658333333334    0.5833341666666667 Cu
   0.7500000000000000    0.2083333333333333    0.5000000000000000 Cu
   0.7499966666666666    0.0416683333333334    0.5000016666666667 Cu
   0.9166700000000001    0.7083300000000002    0.5000000000000000 Cu
   0.5833333333333335    0.5416683333333333    0.4999983333333333 Ni
   0.5833349999999998    0.7916641666666668    0.4166658333333335 Ni
   0.5833300000000001    0.2083333333333333    0.5000000000000000 Ni
   0.0833333333333335    0.2083333333333334    0.4999999999999999 Ni
   0.0833349999999999    0.1250008333333333    0.5833325000000000 Ni
   0.7500016666666667    0.7083308333333336    0.4999991666666667 Ru
   0.4166683333333335    0.6250008333333334    0.4166658333333333 Ru
   0.9166683333333332    0.2916675000000000    0.5833325000000000 Ru
   0.4166633333333334    0.9583366666666666    0.5833333333333334 Ru
   0.7500000000000000    0.1249983333333333    0.5833349999999999 Ru
   0.7500033333333332    0.6249966666666669    0.5833333333333334 Ru
   0.5833316666666668    0.3750008333333334    0.4999991666666667 Ru
   0.4166650000000001    0.1250025000000001    0.4166675000000000 Ru
   0.5833333333333333    0.7916666666666665    0.5833333333333334 Ru
   0.5833299999999999    0.1250016666666667    0.4166683333333333 Ru
   0.7500016666666668    0.2916658333333334    0.5833341666666666 Pt
   0.5833333333333335    0.6250000000000000    0.4166666666666666 Pt
   0.9166666666666667    0.8749983333333333    0.5000016666666667 Pt
   0.5833333333333334    0.4583333333333334    0.5833333333333333 Pt
   0.2499999999999999    0.9583366666666667    0.5833333333333333 Pt
   0.5833333333333334    0.1250000000000000    0.5833333333333333 Pt
   0.0833350000000000    0.6249975000000002    0.5833325000000000 Pt
   0.0833333333333334    0.6249983333333333    0.4166683333333333 Pt
   0.7500016666666667    0.7916658333333334    0.5833341666666666 Pt
   0.9166666666666667    0.4583333333333334    0.5833333333333333 Pt
   0.0833333333333333    0.5416666666666666    0.5000000000000000 Pt
   0.0833333333333334    0.2916666666666668    0.5833333333333333 Pt
   0.7499999999999999    0.7916650000000002    0.4166650000000002 Pt
   0.9166633333333333    0.9583350000000000    0.5833349999999999 Pt
   0.0833333333333333    0.4583333333333333    0.5833333333333334 Pt
   0.7500033333333332    0.4583333333333333    0.5833333333333334 Pt
   0.2499983333333334    0.4583325000000001    0.4166675000000000 Pt
   0.4166650000000000    0.2916658333333333    0.4166675000000000 Pt
   0.4166666666666667    0.2083333333333334    0.4999999999999999 Pt
   0.2499983333333334    0.5416658333333333    0.5000008333333333 Pt
   0.2499999999999999    0.4583333333333333    0.5833333333333334 Pt
   0.0833333333333334    0.1250016666666667    0.4166683333333333 Pt
   0.7499966666666669    0.9583333333333334    0.4166666666666666 Pt
