Zn10 Co10 Cu50 Ni5 Ru10 Pt23
1.0
  16.0206037339421137    0.0000000000000000    4.8303937727684287
   8.7385111276047898   14.2699289161763971    0.0000000000000010
   0.0000000000000000    0.0000000000000000   28.9823626366105636
Zn Co Cu Ni Ru Pt
10 10 50 5 10 23
direct
   0.0833341666666667    0.1250020833333333    0.4166683333333333 Zn
   0.0833358333333332    0.6249979166666668    0.5833325000000001 Zn
   0.7500041666666666    0.6249970833333336    0.5833333333333334 Zn
   0.7500041666666667    0.7916670833333334    0.5833333333333333 Zn
   0.0833358333333333    0.7083312500000002    0.4999991666666668 Zn
   0.5833341666666667    0.6250004166666666    0.4166666666666667 Zn
   0.2500008333333333    0.1250004166666667    0.5833333333333333 Zn
   0.7500025000000000    0.1249995833333333    0.5833341666666667 Zn
   0.5833324999999998    0.4583329166666668    0.4166675000000000 Zn
   0.5833341666666667    0.4583337500000000    0.5833333333333333 Zn
   0.0833341666666666    0.8750004166666666    0.5000000000000000 Co
   0.9166658333333333    0.9583362500000000    0.5833341666666666 Co
   0.2500024999999998    0.2916679166666667    0.5833325000000000 Co
   0.7499991666666668    0.9583345833333333    0.4166658333333333 Co
   0.4166691666666665    0.7916645833333336    0.4166658333333335 Co
   0.7500025000000001    0.2916662500000001    0.5833341666666667 Co
   0.5833341666666667    0.9583337500000000    0.4166666666666667 Co
   0.5833341666666666    0.6249970833333335    0.5833333333333334 Co
   0.5833341666666667    0.7083320833333335    0.4999983333333334 Co
   0.9166675000000000    0.9583337500000000    0.4166666666666667 Co
   0.5833341666666667    0.7916670833333334    0.5833333333333333 Cu
   0.4166675000000000    0.2916670833333334    0.4166666666666666 Cu
   0.2500008333333334    0.7916670833333334    0.5833333333333333 Cu
   0.7499975000000000    0.1250037499999999    0.4166666666666668 Cu
   0.5833324999999998    0.1250029166666667    0.4166675000000000 Cu
   0.4166674999999999    0.4583337500000001    0.4166666666666667 Cu
   0.9166675000000000    0.1250004166666667    0.5833333333333333 Cu
   0.0833341666666667    0.7916670833333334    0.5833333333333333 Cu
   0.2500008333333334    0.4583337500000000    0.4166666666666667 Cu
   0.5833325000000000    0.3750012500000000    0.4999991666666667 Cu
   0.4166674999999999    0.3750004166666667    0.5000000000000000 Cu
   0.5833325000000003    0.2083345833333334    0.4999991666666667 Cu
   0.0833358333333333    0.6249995833333333    0.4166675000000001 Cu
   0.4166658333333334    0.1250029166666667    0.4166675000000000 Cu
   0.5833374999999997    0.7916654166666668    0.4166650000000002 Cu
   0.7500008333333331    0.7916654166666668    0.4166650000000002 Cu
   0.4166675000000001    0.1250020833333333    0.5833316666666667 Cu
   0.4166658333333335    0.2916679166666667    0.5833325000000000 Cu
   0.4166674999999999    0.2083337500000000    0.5000000000000000 Cu
   0.5833341666666667    0.8750020833333333    0.4999983333333334 Cu
   0.9166708333333332    0.6249987500000002    0.5833316666666668 Cu
   0.4166691666666667    0.9583345833333333    0.4166658333333333 Cu
   0.2500008333333332    0.1250037500000000    0.4166666666666667 Cu
   0.4166658333333332    0.4583345833333332    0.5833325000000001 Cu
   0.9166675000000001    0.7916670833333334    0.5833333333333333 Cu
   0.7500041666666666    0.7083320833333335    0.4999983333333334 Cu
   0.9166675000000000    0.6250004166666666    0.4166666666666667 Cu
   0.0833375000000000    0.2916670833333333    0.4166666666666667 Cu
   0.9166691666666666    0.4583345833333334    0.4166658333333334 Cu
   0.0833358333333333    0.4583329166666667    0.4166675000000001 Cu
   0.5833341666666667    0.1250004166666667    0.5833333333333333 Cu
   0.5833341666666666    0.9583370833333333    0.5833333333333334 Cu
   0.2499991666666666    0.8749995833333333    0.5000008333333333 Cu
   0.4166641666666667    0.9583370833333333    0.5833333333333334 Cu
   0.4166675000000000    0.8750004166666667    0.4999999999999999 Cu
   0.2500008333333333    0.7916637500000003    0.4166666666666667 Cu
   0.9166675000000000    0.4583337500000000    0.5833333333333334 Cu
   0.0833341666666666    0.2916670833333334    0.5833333333333333 Cu
   0.4166674999999999    0.7083304166666669    0.5000000000000001 Cu
   0.5833308333333334    0.5416670833333332    0.5000000000000001 Cu
   0.9166675000000001    0.0416687500000000    0.5000016666666667 Cu
   0.0833341666666667    0.2083337500000000    0.5000000000000000 Cu
   0.2499991666666667    0.0416695833333334    0.5000008333333333 Cu
   0.2500008333333333    0.9583337500000000    0.4166666666666666 Cu
   0.7499991666666667    0.0416695833333334    0.5000008333333333 Cu
   0.5833341666666667    0.2916670833333334    0.5833333333333333 Cu
   0.7499991666666667    0.3749995833333334    0.5000008333333333 Cu
   0.9166675000000001    0.2916670833333334    0.4166666666666666 Cu
   0.9166641666666666    0.1250020833333333    0.4166683333333333 Cu
   0.0833375000000000    0.7916637500000002    0.4166666666666667 Cu
   0.7500008333333336    0.6250020833333333    0.4166650000000001 Ni
   0.2500024999999998    0.6249979166666668    0.5833325000000001 Ni
   0.7499975000000001    0.2916670833333334    0.4166666666666667 Ni
   0.2500008333333334    0.2916670833333334    0.4166666666666666 Ni
   0.2500024999999999    0.2083345833333333    0.4999991666666667 Ni
   0.9166691666666666    0.7916645833333336    0.4166658333333334 Ru
   0.0833358333333334    0.4583345833333333    0.5833325000000000 Ru
   0.0833358333333332    0.3750012500000000    0.4999991666666667 Ru
   0.5833308333333332    0.0416704166666666    0.5000000000000000 Ru
   0.9166675000000000    0.2083320833333333    0.5000016666666667 Ru
   0.9166708333333333    0.7083304166666669    0.5000000000000001 Ru
   0.7499991666666668    0.4583345833333334    0.4166658333333333 Ru
   0.0833325000000000    0.9583362500000000    0.5833341666666666 Ru
   0.7500008333333332    0.8750004166666666    0.5000000000000000 Ru
   0.2499974999999998    0.9583354166666667    0.5833349999999999 Ru
   0.9166691666666666    0.3749995833333334    0.5000008333333333 Pt
   0.2500008333333333    0.4583337500000000    0.5833333333333334 Pt
   0.0833341666666667    0.9583320833333333    0.4166683333333334 Pt
   0.7500008333333333    0.5416670833333334    0.5000000000000000 Pt
   0.4166674999999999    0.0416704166666667    0.5000000000000000 Pt
   0.7500008333333333    0.2083337500000000    0.5000000000000000 Pt
   0.2500025000000000    0.7083312500000002    0.4999991666666668 Pt
   0.7500008333333334    0.4583320833333333    0.5833349999999999 Pt
   0.9166691666666666    0.8749995833333334    0.5000008333333332 Pt
   0.0833341666666668    0.5416670833333334    0.5000000000000000 Pt
   0.2500008333333333    0.6250004166666667    0.4166666666666667 Pt
   0.2500008333333334    0.3750004166666668    0.4999999999999999 Pt
   0.4166675000000000    0.6249987500000002    0.5833316666666668 Pt
   0.0833308333333333    0.0416687500000000    0.5000016666666667 Pt
   0.2500008333333333    0.5416670833333332    0.5000000000000001 Pt
   0.9166708333333333    0.5416670833333332    0.5000000000000001 Pt
   0.9166658333333333    0.2916662500000000    0.5833341666666667 Pt
   0.0833324999999999    0.1249995833333333    0.5833341666666667 Pt
   0.5833341666666667    0.2916670833333334    0.4166666666666666 Pt
   0.4166658333333334    0.6249995833333333    0.4166675000000000 Pt
   0.4166674999999999    0.5416670833333332    0.5000000000000001 Pt
   0.7500008333333333    0.9583354166666667    0.5833349999999999 Pt
   0.4166641666666668    0.7916670833333334    0.5833333333333333 Pt
