Pt16
1.0
   5.5690441488302973    0.0000000000000000    0.3098699054478048
   2.7759012630392501    4.8279006731164289    0.3098699054478048
   0.0000000000000000    0.0000000000000000   25.0994623412722682
Pt
16
direct
   0.2272727272727272    0.2272727272727273    0.6363636363636362 Pt
   0.2272727272727272    0.7272727272727273    0.6363636363636362 Pt
   0.7272727272727272    0.2272727272727273    0.6363636363636362 Pt
   0.7272727272727272    0.7272727272727273    0.6363636363636362 Pt
   0.4090909090909087    0.4090909090909091    0.5454545454545454 Pt
   0.4090909090909087    0.9090909090909091    0.5454545454545453 Pt
   0.9090909090909088    0.4090909090909091    0.5454545454545453 Pt
   0.9090909090909086    0.9090909090909091    0.5454545454545454 Pt
   0.0909090909090904    0.0909090909090909    0.4545454545454544 Pt
   0.0909090909090904    0.5909090909090909    0.4545454545454545 Pt
   0.5909090909090904    0.0909090909090909    0.4545454545454545 Pt
   0.5909090909090904    0.5909090909090909    0.4545454545454545 Pt
   0.2727272727272729    0.2727272727272724    0.3636363636363636 Pt
   0.2727272727272730    0.7727272727272724    0.3636363636363636 Pt
   0.7727272727272729    0.2727272727272724    0.3636363636363636 Pt
   0.7727272727272729    0.7727272727272724    0.3636363636363635 Pt
