Li8 Mn4 O12
1.0
   4.7242125426745378    0.0000000000000000   -1.6685903481428592
   0.0000000000000014    8.6599920000000008    0.0000000000000005
   0.0000000000000000    0.0000000000000000    5.0897268899999997
Li Mn O
8 4 12
direct
   0.0000000000000000    0.3385910000000000    0.5000000000000000 Li
   0.0000000000000000    0.6614090000000000    0.5000000000000000 Li
   0.5000000000000000    0.8385910000000000    0.5000000000000000 Li
   0.5000000000000000    0.1614090000000000    0.5000000000000000 Li
   0.0000000000000000    0.0000000000000000    0.5000000000000000 Li
   0.5000000000000000    0.5000000000000000    0.5000000000000000 Li
   0.0000000000000000    0.5000000000000000    0.0000000000000000 Li
   0.5000000000000000    0.0000000000000000    0.0000000000000000 Li
   0.0000000000000000    0.1668825000000000    0.0000000000000000 Mn
   0.0000000000000000    0.8331175000000000    0.0000000000000000 Mn
   0.5000000000000000    0.6668825000000000    0.0000000000000000 Mn
   0.5000000000000000    0.3331175000000000    0.0000000000000000 Mn
   0.2460870000000000    0.1785950000000000    0.7762829999999999 O
   0.7539130000000001    0.8214049999999999    0.2237170000000001 O
   0.7539130000000001    0.1785950000000000    0.2237170000000001 O
   0.2460870000000000    0.8214049999999999    0.7762829999999999 O
   0.7460869999999999    0.6785950000000001    0.7762829999999999 O
   0.2539130000000000    0.3214050000000000    0.2237170000000001 O
   0.2539130000000000    0.6785950000000001    0.2237170000000001 O
   0.7460869999999999    0.3214050000000000    0.7762829999999999 O
   0.2189502500000000    0.0000000000000000    0.2274680000000000 O
   0.7810497500000000    0.0000000000000000    0.7725320000000000 O
   0.7189502500000000    0.5000000000000000    0.2274680000000000 O
   0.2810497500000000    0.5000000000000000    0.7725320000000000 O
