Li2 Zn24 Co24 Cu128 Ni16 Ru24 Pt40 C2 O4
1.0
  22.3106331599979448    0.0000000000000000   -0.0000000000000036
  11.1553165799989777   19.3215750910737043   -0.0000000000000036
   0.0000000000000000    0.0000000000000000   27.3248335402066154
Zn Co Cu Ni Ru Pt O C Li
24 24 128 16 24 40 4 2 2
direct
   0.4583333333333335    0.4583333333333334    0.0416666666666667 Zn
   0.4583333333333333    0.9583333333333335    0.0416666666666667 Zn
   0.9583333333333333    0.4583333333333334    0.0416666666666667 Zn
   0.9583333333333333    0.9583333333333335    0.0416666666666667 Zn
   0.0000000000000000    0.3750000000000000    0.1250000000000000 Zn
   0.0000000000000000    0.8750000000000001    0.1250000000000000 Zn
   0.4999999999999999    0.3750000000000000    0.1250000000000000 Zn
   0.5000000000000000    0.8750000000000001    0.1250000000000000 Zn
   0.0833333333333333    0.0833333333333334    0.0416666666666667 Zn
   0.0833333333333333    0.5833333333333334    0.0416666666666667 Zn
   0.5833333333333333    0.0833333333333334    0.0416666666666667 Zn
   0.5833333333333333    0.5833333333333334    0.0416666666666667 Zn
   0.2916666666666666    0.2916666666666666    0.2083333333333333 Zn
   0.2916666666666667    0.7916666666666667    0.2083333333333333 Zn
   0.7916666666666666    0.2916666666666666    0.2083333333333333 Zn
   0.7916666666666665    0.7916666666666667    0.2083333333333333 Zn
   0.3333333333333334    0.2083333333333334    0.2916666666666666 Zn
   0.3333333333333334    0.7083333333333334    0.2916666666666666 Zn
   0.8333333333333335    0.2083333333333334    0.2916666666666666 Zn
   0.8333333333333335    0.7083333333333334    0.2916666666666666 Zn
   0.4166666666666666    0.4166666666666667    0.2083333333333333 Zn
   0.4166666666666667    0.9166666666666669    0.2083333333333333 Zn
   0.9166666666666667    0.4166666666666667    0.2083333333333333 Zn
   0.9166666666666665    0.9166666666666669    0.2083333333333333 Zn
   0.0833333333333333    0.3333333333333335    0.0416666666666667 Co
   0.0833333333333333    0.8333333333333335    0.0416666666666667 Co
   0.5833333333333333    0.3333333333333335    0.0416666666666667 Co
   0.5833333333333330    0.8333333333333335    0.0416666666666667 Co
   0.3749999999999999    0.2500000000000001    0.1250000000000000 Co
   0.3750000000000000    0.7500000000000001    0.1250000000000000 Co
   0.8749999999999999    0.2500000000000001    0.1250000000000000 Co
   0.8750000000000000    0.7500000000000001    0.1250000000000000 Co
   0.3333333333333333    0.2083333333333334    0.0416666666666666 Co
   0.3333333333333333    0.7083333333333335    0.0416666666666666 Co
   0.8333333333333331    0.2083333333333334    0.0416666666666666 Co
   0.8333333333333331    0.7083333333333335    0.0416666666666666 Co
   0.4166666666666667    0.1666666666666668    0.2083333333333334 Co
   0.4166666666666667    0.6666666666666669    0.2083333333333333 Co
   0.9166666666666665    0.1666666666666668    0.2083333333333333 Co
   0.9166666666666667    0.6666666666666669    0.2083333333333333 Co
   0.2083333333333335    0.0833333333333335    0.2916666666666666 Co
   0.2083333333333335    0.5833333333333335    0.2916666666666666 Co
   0.7083333333333335    0.0833333333333335    0.2916666666666666 Co
   0.7083333333333334    0.5833333333333335    0.2916666666666666 Co
   0.1666666666666667    0.0416666666666668    0.2083333333333333 Co
   0.1666666666666666    0.5416666666666669    0.2083333333333333 Co
   0.6666666666666666    0.0416666666666668    0.2083333333333333 Co
   0.6666666666666667    0.5416666666666669    0.2083333333333333 Co
   0.2500000000000000    0.3750000000000001    0.1249999999999999 Cu
   0.2500000000000000    0.8750000000000001    0.1249999999999999 Cu
   0.7500000000000001    0.3750000000000001    0.1249999999999999 Cu
   0.7500000000000000    0.8750000000000001    0.1249999999999999 Cu
   0.3750000000000000    0.1250000000000000    0.1250000000000000 Cu
   0.3750000000000000    0.6250000000000000    0.1250000000000000 Cu
   0.8749999999999999    0.1250000000000000    0.1250000000000000 Cu
   0.8749999999999999    0.6250000000000000    0.1250000000000000 Cu
   0.4583333333333333    0.3333333333333335    0.0416666666666667 Cu
   0.4583333333333334    0.8333333333333335    0.0416666666666667 Cu
   0.9583333333333334    0.3333333333333335    0.0416666666666667 Cu
   0.9583333333333333    0.8333333333333335    0.0416666666666667 Cu
   0.3333333333333332    0.0833333333333334    0.0416666666666666 Cu
   0.3333333333333333    0.5833333333333335    0.0416666666666666 Cu
   0.8333333333333333    0.0833333333333334    0.0416666666666666 Cu
   0.8333333333333331    0.5833333333333335    0.0416666666666666 Cu
   0.3750000000000000    0.3750000000000000    0.1250000000000000 Cu
   0.3749999999999999    0.8750000000000001    0.1250000000000000 Cu
   0.8749999999999999    0.3750000000000000    0.1250000000000000 Cu
   0.8750000000000000    0.8750000000000001    0.1250000000000000 Cu
   0.2083333333333333    0.3333333333333336    0.0416666666666666 Cu
   0.2083333333333333    0.8333333333333337    0.0416666666666666 Cu
   0.7083333333333333    0.3333333333333336    0.0416666666666666 Cu
   0.7083333333333333    0.8333333333333337    0.0416666666666666 Cu
   0.2083333333333333    0.0833333333333334    0.0416666666666666 Cu
   0.2083333333333332    0.5833333333333334    0.0416666666666666 Cu
   0.7083333333333331    0.0833333333333334    0.0416666666666666 Cu
   0.7083333333333333    0.5833333333333334    0.0416666666666666 Cu
   0.1250000000000000    0.1250000000000001    0.1250000000000000 Cu
   0.1250000000000000    0.6250000000000001    0.1250000000000000 Cu
   0.6250000000000000    0.1250000000000001    0.1250000000000000 Cu
   0.6250000000000000    0.6250000000000001    0.1250000000000000 Cu
   0.3333333333333333    0.4583333333333334    0.0416666666666666 Cu
   0.3333333333333332    0.9583333333333335    0.0416666666666666 Cu
   0.8333333333333331    0.4583333333333334    0.0416666666666666 Cu
   0.8333333333333333    0.9583333333333335    0.0416666666666666 Cu
   0.2499999999999999    0.0000000000000001    0.1250000000000000 Cu
   0.2499999999999998    0.5000000000000001    0.1250000000000000 Cu
   0.7499999999999999    0.0000000000000001    0.1250000000000000 Cu
   0.7499999999999998    0.5000000000000001    0.1250000000000000 Cu
   0.2083333333333332    0.4583333333333334    0.0416666666666666 Cu
   0.2083333333333333    0.9583333333333335    0.0416666666666666 Cu
   0.7083333333333331    0.4583333333333334    0.0416666666666666 Cu
   0.7083333333333330    0.9583333333333335    0.0416666666666666 Cu
   0.2500000000000000    0.2500000000000002    0.1250000000000000 Cu
   0.2499999999999999    0.7500000000000002    0.1250000000000000 Cu
   0.7499999999999999    0.2500000000000002    0.1250000000000000 Cu
   0.7500000000000000    0.7500000000000002    0.1250000000000000 Cu
   0.4583333333333333    0.2083333333333334    0.0416666666666667 Cu
   0.4583333333333333    0.7083333333333334    0.0416666666666667 Cu
   0.9583333333333333    0.2083333333333334    0.0416666666666667 Cu
   0.9583333333333335    0.7083333333333334    0.0416666666666667 Cu
   0.0833333333333332    0.4583333333333334    0.0416666666666667 Cu
   0.0833333333333333    0.9583333333333335    0.0416666666666667 Cu
   0.5833333333333333    0.4583333333333334    0.0416666666666667 Cu
   0.5833333333333333    0.9583333333333335    0.0416666666666667 Cu
   0.4583333333333333    0.0833333333333333    0.0416666666666667 Cu
   0.4583333333333333    0.5833333333333334    0.0416666666666667 Cu
   0.9583333333333331    0.0833333333333333    0.0416666666666667 Cu
   0.9583333333333333    0.5833333333333334    0.0416666666666667 Cu
   0.2499999999999999    0.1250000000000001    0.1250000000000000 Cu
   0.2499999999999999    0.6250000000000002    0.1250000000000000 Cu
   0.7499999999999999    0.1250000000000001    0.1250000000000000 Cu
   0.7499999999999998    0.6250000000000002    0.1250000000000000 Cu
   0.0833333333333334    0.2083333333333334    0.2916666666666666 Cu
   0.0833333333333334    0.7083333333333334    0.2916666666666666 Cu
   0.5833333333333334    0.2083333333333334    0.2916666666666666 Cu
   0.5833333333333335    0.7083333333333334    0.2916666666666666 Cu
   0.2083333333333333    0.4583333333333334    0.2916666666666667 Cu
   0.2083333333333333    0.9583333333333335    0.2916666666666667 Cu
   0.7083333333333334    0.4583333333333334    0.2916666666666667 Cu
   0.7083333333333333    0.9583333333333335    0.2916666666666666 Cu
   0.2916666666666667    0.1666666666666668    0.2083333333333333 Cu
   0.2916666666666667    0.6666666666666667    0.2083333333333333 Cu
   0.7916666666666665    0.1666666666666668    0.2083333333333333 Cu
   0.7916666666666667    0.6666666666666667    0.2083333333333333 Cu
   0.1666666666666667    0.4166666666666667    0.2083333333333333 Cu
   0.1666666666666667    0.9166666666666669    0.2083333333333333 Cu
   0.6666666666666666    0.4166666666666667    0.2083333333333333 Cu
   0.6666666666666665    0.9166666666666669    0.2083333333333333 Cu
   0.2083333333333335    0.2083333333333333    0.2916666666666666 Cu
   0.2083333333333334    0.7083333333333334    0.2916666666666666 Cu
   0.7083333333333334    0.2083333333333333    0.2916666666666666 Cu
   0.7083333333333335    0.7083333333333334    0.2916666666666666 Cu
   0.0416666666666667    0.1666666666666668    0.2083333333333333 Cu
   0.0416666666666667    0.6666666666666669    0.2083333333333333 Cu
   0.5416666666666666    0.1666666666666668    0.2083333333333333 Cu
   0.5416666666666667    0.6666666666666669    0.2083333333333333 Cu
   0.0416666666666667    0.4166666666666667    0.2083333333333333 Cu
   0.0416666666666667    0.9166666666666669    0.2083333333333333 Cu
   0.5416666666666667    0.4166666666666667    0.2083333333333333 Cu
   0.5416666666666665    0.9166666666666669    0.2083333333333333 Cu
   0.4583333333333334    0.4583333333333334    0.2916666666666666 Cu
   0.4583333333333333    0.9583333333333335    0.2916666666666666 Cu
   0.9583333333333331    0.4583333333333334    0.2916666666666666 Cu
   0.9583333333333333    0.9583333333333335    0.2916666666666666 Cu
   0.1666666666666667    0.2916666666666667    0.2083333333333333 Cu
   0.1666666666666667    0.7916666666666667    0.2083333333333333 Cu
   0.6666666666666667    0.2916666666666667    0.2083333333333333 Cu
   0.6666666666666667    0.7916666666666667    0.2083333333333333 Cu
   0.0833333333333334    0.3333333333333334    0.2916666666666665 Cu
   0.0833333333333334    0.8333333333333335    0.2916666666666665 Cu
   0.5833333333333335    0.3333333333333334    0.2916666666666665 Cu
   0.5833333333333333    0.8333333333333335    0.2916666666666665 Cu
   0.0416666666666667    0.2916666666666667    0.2083333333333333 Cu
   0.0416666666666666    0.7916666666666667    0.2083333333333333 Cu
   0.5416666666666666    0.2916666666666667    0.2083333333333333 Cu
   0.5416666666666667    0.7916666666666667    0.2083333333333333 Cu
   0.0833333333333334    0.0833333333333335    0.2916666666666666 Cu
   0.0833333333333334    0.5833333333333336    0.2916666666666666 Cu
   0.5833333333333334    0.0833333333333335    0.2916666666666666 Cu
   0.5833333333333335    0.5833333333333336    0.2916666666666666 Cu
   0.2916666666666667    0.0416666666666667    0.2083333333333334 Cu
   0.2916666666666667    0.5416666666666667    0.2083333333333333 Cu
   0.7916666666666667    0.0416666666666667    0.2083333333333333 Cu
   0.7916666666666667    0.5416666666666667    0.2083333333333333 Cu
   0.4166666666666667    0.2916666666666666    0.2083333333333333 Cu
   0.4166666666666666    0.7916666666666667    0.2083333333333333 Cu
   0.9166666666666666    0.2916666666666666    0.2083333333333333 Cu
   0.9166666666666667    0.7916666666666667    0.2083333333333333 Cu
   0.2916666666666667    0.4166666666666667    0.2083333333333333 Cu
   0.2916666666666666    0.9166666666666669    0.2083333333333333 Cu
   0.7916666666666665    0.4166666666666667    0.2083333333333333 Cu
   0.7916666666666665    0.9166666666666669    0.2083333333333333 Cu
   0.0833333333333333    0.4583333333333334    0.2916666666666666 Cu
   0.0833333333333333    0.9583333333333335    0.2916666666666666 Cu
   0.5833333333333333    0.4583333333333334    0.2916666666666666 Cu
   0.5833333333333333    0.9583333333333335    0.2916666666666666 Cu
   0.0833333333333333    0.2083333333333334    0.0416666666666667 Ni
   0.0833333333333334    0.7083333333333334    0.0416666666666667 Ni
   0.5833333333333333    0.2083333333333334    0.0416666666666667 Ni
   0.5833333333333333    0.7083333333333334    0.0416666666666667 Ni
   0.0000000000000000    0.2500000000000001    0.1250000000000000 Ni
   0.0000000000000000    0.7500000000000001    0.1250000000000000 Ni
   0.5000000000000000    0.2500000000000001    0.1250000000000000 Ni
   0.4999999999999999    0.7500000000000001    0.1250000000000000 Ni
   0.4166666666666667    0.0416666666666667    0.2083333333333333 Ni
   0.4166666666666667    0.5416666666666667    0.2083333333333333 Ni
   0.9166666666666666    0.0416666666666667    0.2083333333333333 Ni
   0.9166666666666665    0.5416666666666667    0.2083333333333333 Ni
   0.3333333333333334    0.0833333333333335    0.2916666666666666 Ni
   0.3333333333333334    0.5833333333333335    0.2916666666666666 Ni
   0.8333333333333333    0.0833333333333335    0.2916666666666666 Ni
   0.8333333333333334    0.5833333333333335    0.2916666666666666 Ni
   0.1250000000000000    0.3750000000000000    0.1250000000000000 Ru
   0.1249999999999999    0.8750000000000001    0.1250000000000000 Ru
   0.6249999999999999    0.3750000000000000    0.1250000000000000 Ru
   0.6250000000000000    0.8750000000000001    0.1250000000000000 Ru
   0.1250000000000000    0.0000000000000000    0.1250000000000000 Ru
   0.1250000000000000    0.5000000000000000    0.1250000000000000 Ru
   0.6250000000000000    0.0000000000000000    0.1250000000000000 Ru
   0.6249999999999999    0.5000000000000000    0.1250000000000000 Ru
   0.1250000000000000    0.2500000000000002    0.1250000000000000 Ru
   0.1250000000000001    0.7500000000000002    0.1250000000000000 Ru
   0.6250000000000001    0.2500000000000002    0.1250000000000000 Ru
   0.6250000000000000    0.7500000000000002    0.1250000000000000 Ru
   0.4583333333333334    0.2083333333333334    0.2916666666666666 Ru
   0.4583333333333333    0.7083333333333334    0.2916666666666666 Ru
   0.9583333333333333    0.2083333333333334    0.2916666666666666 Ru
   0.9583333333333335    0.7083333333333334    0.2916666666666666 Ru
   0.4583333333333334    0.3333333333333334    0.2916666666666667 Ru
   0.4583333333333334    0.8333333333333335    0.2916666666666667 Ru
   0.9583333333333335    0.3333333333333334    0.2916666666666667 Ru
   0.9583333333333333    0.8333333333333335    0.2916666666666666 Ru
   0.4583333333333335    0.0833333333333335    0.2916666666666666 Ru
   0.4583333333333334    0.5833333333333335    0.2916666666666666 Ru
   0.9583333333333333    0.0833333333333335    0.2916666666666666 Ru
   0.9583333333333334    0.5833333333333335    0.2916666666666666 Ru
   0.3750000000000000    0.5000000000000000    0.1250000000000000 Pt
   0.3749999999999999    0.0000000000000000    0.1250000000000000 Pt
   0.8749999999999999    0.5000000000000000    0.1250000000000000 Pt
   0.8749999999999998    0.0000000000000000    0.1250000000000000 Pt
   0.0000000000000000    0.0000000000000000    0.1250000000000000 Pt
   0.0000000000000001    0.5000000000000000    0.1250000000000000 Pt
   0.4999999999999999    0.0000000000000000    0.1250000000000000 Pt
   0.5000000000000000    0.5000000000000000    0.1250000000000000 Pt
   0.3333333333333331    0.3333333333333336    0.0416666666666666 Pt
   0.3333333333333332    0.8333333333333337    0.0416666666666666 Pt
   0.8333333333333331    0.3333333333333336    0.0416666666666666 Pt
   0.8333333333333333    0.8333333333333337    0.0416666666666666 Pt
   0.2083333333333334    0.2083333333333334    0.0416666666666667 Pt
   0.2083333333333334    0.7083333333333335    0.0416666666666667 Pt
   0.7083333333333334    0.2083333333333334    0.0416666666666667 Pt
   0.7083333333333334    0.7083333333333335    0.0416666666666667 Pt
   0.0000000000000000    0.1250000000000001    0.1250000000000000 Pt
   0.0000000000000000    0.6250000000000001    0.1250000000000000 Pt
   0.4999999999999999    0.1250000000000001    0.1250000000000000 Pt
   0.4999999999999999    0.6250000000000001    0.1250000000000000 Pt
   0.2083333333333333    0.3333333333333334    0.2916666666666666 Pt
   0.2083333333333334    0.8333333333333334    0.2916666666666666 Pt
   0.7083333333333333    0.3333333333333334    0.2916666666666666 Pt
   0.7083333333333334    0.8333333333333334    0.2916666666666667 Pt
   0.3333333333333335    0.3333333333333334    0.2916666666666667 Pt
   0.3333333333333334    0.8333333333333334    0.2916666666666667 Pt
   0.8333333333333333    0.3333333333333334    0.2916666666666667 Pt
   0.8333333333333334    0.8333333333333334    0.2916666666666666 Pt
   0.1666666666666667    0.1666666666666669    0.2083333333333333 Pt
   0.1666666666666667    0.6666666666666669    0.2083333333333333 Pt
   0.6666666666666666    0.1666666666666669    0.2083333333333333 Pt
   0.6666666666666667    0.6666666666666669    0.2083333333333333 Pt
   0.0416666666666667    0.0416666666666667    0.2083333333333333 Pt
   0.0416666666666667    0.5416666666666667    0.2083333333333333 Pt
   0.5416666666666667    0.0416666666666667    0.2083333333333333 Pt
   0.5416666666666666    0.5416666666666667    0.2083333333333333 Pt
   0.3333333333333334    0.4583333333333334    0.2916666666666667 Pt
   0.3333333333333333    0.9583333333333335    0.2916666666666667 Pt
   0.8333333333333334    0.4583333333333334    0.2916666666666667 Pt
   0.8333333333333333    0.9583333333333335    0.2916666666666666 Pt
   0.2472808580249090    0.2879807811663252    0.3831585323470713 O
   0.4193849960307082    0.2536875107224413    0.3831585323470714 O
   0.3505259436826918    0.1847956117066644    0.3831585323470713 O
   0.3161424981536712    0.3568675046206104    0.3831585323470714 O
   0.3160799941748033    0.2536875107224413    0.3831585323470713 C
   0.3505858598808138    0.2879807811663252    0.3831585323470714 C
   0.2127749923188985    0.2536875107224413    0.3831585323470713 Li
   0.4538908617367187    0.2879807811663252    0.3831585323470714 Li
