Li32 Mn16 O48
1.0
   9.3813939635794110    0.0000000000000000   -3.3148652513718746
   0.0000000000000014    8.5993530684083854    0.0000000000000005
  -0.0074983091950796    0.0000000000000000   10.0901638911249218
Li Mn O
32 16 48
direct
   0.0000000000000000    0.3384360366169895    0.2500000000000000 Li
   0.0000000000000000    0.3384360366169895    0.7500000000000000 Li
   0.4999999999999999    0.3384360366169895    0.2500000000000000 Li
   0.4999999999999999    0.3384360366169895    0.7500000000000000 Li
   0.0000000000000000    0.6615639633830104    0.2500000000000000 Li
   0.0000000000000000    0.6615639633830104    0.7500000000000001 Li
   0.4999999999999999    0.6615639633830104    0.2500000000000000 Li
   0.4999999999999999    0.6615639633830104    0.7500000000000000 Li
   0.2499999999999999    0.8384360366169896    0.2500000000000000 Li
   0.2500000000000000    0.8384360366169896    0.7500000000000000 Li
   0.7500000000000000    0.8384360366169896    0.2500000000000000 Li
   0.7499999999999998    0.8384360366169896    0.7499999999999999 Li
   0.2500000000000000    0.1615639633830105    0.2500000000000000 Li
   0.2500000000000000    0.1615639633830105    0.7500000000000001 Li
   0.7499999999999999    0.1615639633830105    0.2500000000000000 Li
   0.7499999999999999    0.1615639633830105    0.7500000000000000 Li
   0.0000000000000000    0.0000000000000000    0.2500000000000000 Li
   0.0000000000000000    0.0000000000000000    0.7500000000000000 Li
   0.5000000000000000    0.0000000000000000    0.2500000000000000 Li
   0.4999999999999999    0.0000000000000000    0.7500000000000000 Li
   0.2500000000000000    0.5000000000000000    0.2500000000000000 Li
   0.2500000000000000    0.5000000000000000    0.7500000000000001 Li
   0.7499999999999999    0.5000000000000000    0.2500000000000000 Li
   0.7499999999999998    0.5000000000000000    0.7499999999999999 Li
   1.0000000000000000    0.5000000000000000    1.0000000000000000 Li
   0.0000000000000000    0.5000000000000000    0.4999999999999999 Li
   0.4999999999999999    0.5000000000000000    0.0000000000000000 Li
   0.4999999999999999    0.5000000000000000    0.5000000000000000 Li
   0.2500000000000000    0.0000000000000000    0.0000000000000000 Li
   0.2500000000000000    0.0000000000000000    0.5000000000000000 Li
   0.7499999999999999    0.0000000000000000    1.0000000000000000 Li
   0.7500000000000000    0.0000000000000000    0.4999999999999999 Li
   1.0000000000000000    0.1670090728397345    0.0000000000000000 Mn
   0.0000000000000000    0.1670090728397345    0.4999999999999999 Mn
   0.4999999999999999    0.1670090728397345    1.0000000000000000 Mn
   0.4999999999999999    0.1670090728397345    0.4999999999999999 Mn
   1.0000000000000000    0.8329909271602656    0.0000000000000000 Mn
   0.0000000000000000    0.8329909271602656    0.4999999999999999 Mn
   0.4999999999999999    0.8329909271602656    1.0000000000000000 Mn
   0.4999999999999999    0.8329909271602656    0.5000000000000000 Mn
   0.2500000000000000    0.6670090728397345    1.0000000000000000 Mn
   0.2500000000000000    0.6670090728397345    0.5000000000000000 Mn
   0.7500000000000000    0.6670090728397345    0.0000000000000000 Mn
   0.7499999999999999    0.6670090728397345    0.4999999999999999 Mn
   0.2500000000000000    0.3329909271602656    0.0000000000000000 Mn
   0.2500000000000000    0.3329909271602656    0.5000000000000000 Mn
   0.7500000000000000    0.3329909271602656    0.0000000000000000 Mn
   0.7500000000000000    0.3329909271602656    0.5000000000000000 Mn
   0.1229564515185009    0.1781228487254503    0.3873026490400616 O
   0.1229564515185009    0.1781228487254503    0.8873026490400615 O
   0.6229564515185008    0.1781228487254503    0.3873026490400615 O
   0.6229564515185009    0.1781228487254503    0.8873026490400615 O
   0.3770435484814991    0.8218771512745500    0.1126973509599384 O
   0.3770435484814992    0.8218771512745500    0.6126973509599384 O
   0.8770435484814990    0.8218771512745500    0.1126973509599385 O
   0.8770435484814989    0.8218771512745500    0.6126973509599385 O
   0.3770435484814991    0.1781228487254503    0.1126973509599384 O
   0.3770435484814992    0.1781228487254503    0.6126973509599385 O
   0.8770435484814990    0.1781228487254503    0.1126973509599384 O
   0.8770435484814990    0.1781228487254503    0.6126973509599385 O
   0.1229564515185009    0.8218771512745500    0.3873026490400616 O
   0.1229564515185009    0.8218771512745500    0.8873026490400617 O
   0.6229564515185009    0.8218771512745500    0.3873026490400616 O
   0.6229564515185008    0.8218771512745500    0.8873026490400615 O
   0.3729564515185008    0.6781228487254501    0.3873026490400616 O
   0.3729564515185008    0.6781228487254501    0.8873026490400616 O
   0.8729564515185008    0.6781228487254501    0.3873026490400616 O
   0.8729564515185008    0.6781228487254501    0.8873026490400615 O
   0.1270435484814990    0.3218771512745499    0.1126973509599384 O
   0.1270435484814990    0.3218771512745499    0.6126973509599385 O
   0.6270435484814990    0.3218771512745499    0.1126973509599384 O
   0.6270435484814990    0.3218771512745499    0.6126973509599384 O
   0.1270435484814990    0.6781228487254501    0.1126973509599384 O
   0.1270435484814990    0.6781228487254501    0.6126973509599385 O
   0.6270435484814990    0.6781228487254501    0.1126973509599384 O
   0.6270435484814989    0.6781228487254501    0.6126973509599385 O
   0.3729564515185008    0.3218771512745499    0.3873026490400616 O
   0.3729564515185008    0.3218771512745499    0.8873026490400616 O
   0.8729564515185009    0.3218771512745499    0.3873026490400616 O
   0.8729564515185009    0.3218771512745499    0.8873026490400615 O
   0.1102288152634484    0.0000000000000000    0.1145907587373395 O
   0.1102288152634483    0.0000000000000000    0.6145907587373395 O
   0.6102288152634483    0.0000000000000000    0.1145907587373394 O
   0.6102288152634483    0.0000000000000000    0.6145907587373395 O
   0.3897711847365516    0.0000000000000000    0.3854092412626605 O
   0.3897711847365516    0.0000000000000000    0.8854092412626604 O
   0.8897711847365517    0.0000000000000000    0.3854092412626606 O
   0.8897711847365515    0.0000000000000000    0.8854092412626605 O
   0.3602288152634484    0.5000000000000000    0.1145907587373394 O
   0.3602288152634484    0.5000000000000000    0.6145907587373394 O
   0.8602288152634483    0.5000000000000000    0.1145907587373395 O
   0.8602288152634482    0.5000000000000000    0.6145907587373394 O
   0.1397711847365516    0.5000000000000000    0.3854092412626606 O
   0.1397711847365516    0.5000000000000000    0.8854092412626605 O
   0.6397711847365515    0.5000000000000000    0.3854092412626605 O
   0.6397711847365514    0.5000000000000000    0.8854092412626605 O
